W=5;
H=5;

MAX_TIME=10;
MAX_TRACKS=6;

TARGET=(3,5);

TRAINS=[(1,1,RIGHT),(5,1,RIGHT)];
DECOYS=[];

INIT_POS=[
(1,1,STRAIGHT_RL),
(2,2,CORNER_DR),
(2,4,CORNER_DL),
(3,2,STRAIGHT_TD),
(3,3,ROCK),
(3,4,SWITCH_D_T_R),
(3,5,STRAIGHT_RL),
(4,2,CORNER_TR),
(4,4,CORNER_TL),
(5,1,STRAIGHT_RL),
];
TUNNEL_PAIRS=[];

GATES=[];
ACTIVATIONS=[];

DSWITCHES=[];

STATIONS=[];
